Normalized Data/p01_19_normalized_split0.vrp
NAME:p01_19_NORMALIZED_split
BEST_KNOWN: 0
COMMENT: 0
DIMENSION: 186
CAPACITY: 100
EDGE_WEIGHT_FORMAT: FUNCTION
EDGE_WEIGHT_TYPE: EXACT_2D
NODE_COORD_SECTION
1 0.00000 0.00000
2 21 39
3 21 39
4 -40 -44
5 -40 -44
6 -40 -44
7 -40 -44
8 6 -22
9 6 -22
10 6 -22
11 6 -22
12 6 -22
13 6 -22
14 -26 45
15 -26 45
16 -26 45
17 -26 45
18 -26 45
19 -26 45
20 45 -2
21 45 -2
22 45 -2
23 45 -2
24 45 -2
25 -30 3
26 -30 3
27 -30 3
28 -30 3
29 -36 -50
30 -36 -50
31 -36 -50
32 -36 -50
33 -35 34
34 -35 34
35 25 5
36 13 -17
37 13 -17
38 13 -17
39 35 37
40 35 37
41 40 -36
42 40 -36
43 40 -36
44 -11 -25
45 -11 -25
46 12 -37
47 12 -37
48 12 -37
49 12 -37
50 -33 41
51 -33 41
52 -33 41
53 -33 41
54 -33 41
55 -46 -9
56 -46 -9
57 -26 -20
58 -26 -20
59 -26 -20
60 -26 -20
61 -26 -20
62 -41 -4
63 -41 -4
64 -41 -4
65 -41 0
66 -41 0
67 -41 0
68 -47 -14
69 -47 -14
70 -47 -14
71 -47 -14
72 12 -36
73 12 -36
74 12 -36
75 -8 9
76 -8 9
77 -8 9
78 3 7
79 3 7
80 3 7
81 20 -21
82 20 -21
83 -10 42
84 -10 42
85 -10 42
86 -10 42
87 -39 21
88 -39 21
89 -39 21
90 -39 21
91 -39 21
92 -39 21
93 -15 22
94 -15 22
95 -15 22
96 -15 22
97 -1 -3
98 -1 -3
99 -1 -3
100 25 33
101 25 33
102 25 33
103 25 33
104 25 33
105 -43 12
106 -43 12
107 -43 12
108 -10 -20
109 -10 -20
110 -10 -20
111 -10 -20
112 31 13
113 31 13
114 31 13
115 31 13
116 31 13
117 -39 49
118 -39 49
119 -39 49
120 -39 49
121 -39 49
122 -39 49
123 -30 1
124 -30 1
125 -37 31
126 -37 31
127 28 -38
128 28 -38
129 28 -38
130 28 -38
131 39 -41
132 39 -41
133 39 -41
134 39 -41
135 39 -41
136 39 -41
137 -46 -35
138 -46 -35
139 -46 -35
140 -46 -35
141 -46 -35
142 -46 -35
143 39 20
144 39 20
145 39 20
146 -41 11
147 -41 11
148 -41 11
149 -41 11
150 -41 11
151 33 43
152 33 43
153 -2 8
154 -2 8
155 -2 8
156 -2 8
157 43 -34
158 43 -34
159 43 -34
160 -23 36
161 -14 38
162 -14 38
163 -14 38
164 -14 38
165 -14 38
166 -14 38
167 40 -22
168 40 -22
169 40 -22
170 40 -22
171 -4 5
172 -4 5
173 -4 5
174 -4 5
175 -4 5
176 -4 5
177 37 45
178 37 45
179 37 45
180 11 24
181 11 24
182 11 24
183 11 24
184 11 24
185 9 39
186 9 39
DEMAND_SECTION
1 0
2 20
3 5
4 10
5 1
6 1
7 1
8 20
9 5
10 1
11 1
12 1
13 1
14 20
15 10
16 5
17 1
18 1
19 1
20 10
21 5
22 1
23 1
24 1
25 20
26 10
27 5
28 1
29 20
30 20
31 5
32 1
33 20
34 20
35 20
36 20
37 10
38 1
39 10
40 5
41 10
42 5
43 1
44 10
45 5
46 20
47 10
48 5
49 1
50 20
51 10
52 1
53 1
54 1
55 20
56 10
57 20
58 10
59 1
60 1
61 1
62 20
63 20
64 5
65 20
66 5
67 1
68 20
69 10
70 5
71 1
72 20
73 20
74 1
75 20
76 10
77 1
78 20
79 20
80 1
81 20
82 5
83 20
84 1
85 1
86 1
87 10
88 5
89 1
90 1
91 1
92 1
93 20
94 20
95 1
96 1
97 20
98 5
99 1
100 20
101 10
102 1
103 1
104 1
105 20
106 5
107 1
108 10
109 1
110 1
111 1
112 10
113 5
114 1
115 1
116 1
117 20
118 20
119 5
120 1
121 1
122 1
123 20
124 20
125 20
126 5
127 20
128 10
129 5
130 1
131 20
132 5
133 1
134 1
135 1
136 1
137 20
138 5
139 1
140 1
141 1
142 1
143 20
144 20
145 1
146 20
147 20
148 1
149 1
150 1
151 20
152 20
153 20
154 10
155 1
156 1
157 20
158 10
159 5
160 20
161 20
162 20
163 5
164 1
165 1
166 1
167 10
168 1
169 1
170 1
171 20
172 10
173 5
174 1
175 1
176 1
177 20
178 5
179 1
180 20
181 1
182 1
183 1
184 1
185 10
186 5
DEPOT_SECTION
1
-1
EOF