Normalized Data/p01_19_normalized_split0.sol
185 -8 12 127 128 129 126 80 81 35 36 37 -11 9 10 7 45 48 46 47 71 72 73 -16 17 13 14 15 18 119 121 116 120 118 117 75 76 -27 25 26 24 123 122 -31 29 30 28 6 3 5 4 139 136 137 138 140 141 58 59 -34 21 20 19 23 22 144 143 142 115 113 111 112 114 -38 39 176 178 177 150 151 -49 52 53 50 51 32 33 125 124 -62 61 57 56 60 43 44 110 109 108 107 -64 65 66 63 54 55 69 68 67 70 -74 93 94 92 95 153 154 155 152 -78 77 79 -85 83 84 82 161 162 165 163 164 160 159 -90 88 89 91 86 87 106 104 105 148 147 146 145 149 -96 97 98 -100 103 102 101 99 2 1 184 185 180 179 181 183 182 -132 131 134 133 130 135 40 42 41 157 156 158 166 168 169 167 -170 172 171 173 175 174 0 





OBJ=
1573.551
BEST_KNOWN=
0.000